(declare-fun temp3134_1 () (_ BitVec 64))
(declare-fun temp3134_2 () (_ BitVec 64))
(declare-fun var73602 () (_ BitVec 64))
(declare-fun k!0 () Bool)
(declare-fun ARGNAME_x_NAMEEND_DIM () (_ BitVec 64))
(declare-fun temp3134_3 () (_ BitVec 64))
(declare-fun var66250 () (_ BitVec 64))
(declare-fun temp3134_4 () (_ BitVec 64))
(declare-fun temp3134_5 () (_ BitVec 64))
(declare-fun ARGNAME_x_NAMEEND_DIMSIZE () (Array (_ BitVec 64) (_ BitVec 64)))
(declare-fun temp3134_6 () (_ BitVec 64))
(declare-fun temp3134_7 () (_ BitVec 64))
(declare-fun temp3134_8 () (_ BitVec 64))
(declare-fun temp3134_9 () (_ BitVec 64))
(declare-fun temp3134_10 () (_ BitVec 64))
(declare-fun temp3134_11 () (_ BitVec 64))
(declare-fun temp3134_12 () (_ BitVec 64))
(declare-fun temp3134_13 () (_ BitVec 64))
(declare-fun temp3134_14 () (_ BitVec 64))
(declare-fun temp3134_15 () (_ BitVec 64))
(declare-fun temp3134_16 () (_ BitVec 64))
(declare-fun temp3134_17 () (_ BitVec 64))
(declare-fun temp3134_18 () (_ BitVec 64))
(declare-fun temp3134_19 () (_ BitVec 64))
(declare-fun temp3134_20 () (_ BitVec 64))
(declare-fun temp3134_21 () (_ BitVec 64))
(declare-fun temp3134_22 () (_ BitVec 64))
(declare-fun temp3134_23 () (_ BitVec 64))
(declare-fun temp3134_24 () (_ BitVec 64))
(declare-fun var73613 () (_ BitVec 64))
(declare-fun temp3134_25 () (_ BitVec 64))
(declare-fun temp3134_26 () (_ BitVec 64))
(declare-fun temp3134_27 () (_ BitVec 64))
(declare-fun temp3134_28 () (_ BitVec 64))
(declare-fun var73640 () (_ BitVec 64))
(declare-fun temp3134_30 () (_ BitVec 64))
(declare-fun temp3134_29 () (_ BitVec 64))
(declare-fun temp3134_31 () (_ BitVec 64))
(declare-fun var467142 () (_ BitVec 64))
(declare-fun temp3134_32 () (_ BitVec 64))
(declare-fun var1253582 () (_ BitVec 64))
(declare-fun var1253583 () (_ BitVec 64))
(declare-fun temp3134_33 () (_ BitVec 64))
(declare-fun var1311851 () (_ BitVec 64))
(declare-fun temp3134_35 () (_ BitVec 64))
(declare-fun temp3134_34 () (_ BitVec 64))
(declare-fun temp3134_36 () (_ BitVec 64))
(declare-fun var1712369 () (_ BitVec 64))
(declare-fun temp3134_37 () (_ BitVec 64))
(declare-fun var1712373 () (_ BitVec 64))
(declare-fun temp3134_38 () (_ BitVec 64))
(declare-fun var1712415 () (_ BitVec 64))
(declare-fun temp3134_39 () (_ BitVec 64))
(declare-fun temp3134_41 () (_ BitVec 64))
(declare-fun temp3134_40 () (_ BitVec 64))
(declare-fun temp3134_42 () (_ BitVec 64))
(declare-fun var2367729 () (_ BitVec 64))
(declare-fun temp3134_43 () (_ BitVec 64))
(declare-fun var2367733 () (_ BitVec 64))
(declare-fun temp3134_45 () (_ BitVec 64))
(declare-fun temp3134_44 () (_ BitVec 64))
(declare-fun temp3134_46 () (_ BitVec 64))
(declare-fun var2957553 () (_ BitVec 64))
(declare-fun temp3134_47 () (_ BitVec 64))
(declare-fun var2957557 () (_ BitVec 64))
(declare-fun temp3134_48 () (_ BitVec 64))
(declare-fun var2957587 () (_ BitVec 64))
(declare-fun temp3134_49 () (_ BitVec 64))
(declare-fun var2957599 () (_ BitVec 64))
(declare-fun temp3134_50 () (_ BitVec 64))
(declare-fun temp3134_51 () (_ BitVec 64))
(declare-fun temp3134_52 () (_ BitVec 64))
(declare-fun ARGNAME_increasing_NAMEEND () (_ BitVec 64))
(assert (= temp3134_1 #x0000000000000001))
(assert (= var73602
   (ite (= ARGNAME_x_NAMEEND_DIM temp3134_1)
        #x0000000000000001
        #x0000000000000000)))
(assert (= temp3134_2 #x0000000000000001))
(assert (= var73602 temp3134_2))
(assert (= temp3134_3 #x0000000000000000))
(assert (= var66250 temp3134_3))
(assert (= temp3134_4 #x0000000000000000))
(assert (= temp3134_5 temp3134_4))
(assert (= temp3134_6 (select ARGNAME_x_NAMEEND_DIMSIZE temp3134_5)))
(assert (= temp3134_7 #x0000000000000001))
(assert (= temp3134_8 temp3134_7))
(assert (= temp3134_9 (select ARGNAME_x_NAMEEND_DIMSIZE temp3134_8)))
(assert (= temp3134_10 #x0000000000000002))
(assert (= temp3134_11 temp3134_10))
(assert (= temp3134_12 (select ARGNAME_x_NAMEEND_DIMSIZE temp3134_11)))
(assert (= temp3134_13 #x0000000000000003))
(assert (= temp3134_14 temp3134_13))
(assert (= temp3134_15 (select ARGNAME_x_NAMEEND_DIMSIZE temp3134_14)))
(assert (= temp3134_16 #x0000000000000004))
(assert (= temp3134_17 temp3134_16))
(assert (= temp3134_18 (select ARGNAME_x_NAMEEND_DIMSIZE temp3134_17)))
(assert (= temp3134_19 #x0000000000000005))
(assert (= temp3134_20 temp3134_19))
(assert (= temp3134_21 (select ARGNAME_x_NAMEEND_DIMSIZE temp3134_20)))
(assert (= temp3134_22 #x0000000000000000))
(assert (= temp3134_23
   (ite (bvslt var66250 temp3134_22)
        (bvadd ARGNAME_x_NAMEEND_DIM var66250)
        var66250)))
(assert (= temp3134_24 (select ARGNAME_x_NAMEEND_DIMSIZE temp3134_23)))
(assert (= var73613 temp3134_24))
(assert (bvslt (ite (bvslt var66250 temp3134_22)
            (bvadd ARGNAME_x_NAMEEND_DIM var66250)
            var66250)
       ARGNAME_x_NAMEEND_DIM))
(assert (= temp3134_25 #x0000000000000000))
(assert (= var66250 temp3134_25))
(assert (= temp3134_26 #x0000000000000000))
(assert (= temp3134_27
   (ite (bvslt var66250 temp3134_26)
        (bvadd ARGNAME_x_NAMEEND_DIM var66250)
        var66250)))
(assert (= temp3134_28 (select ARGNAME_x_NAMEEND_DIMSIZE temp3134_27)))
(assert (= var73640 temp3134_28))
(assert (bvslt (ite (bvslt var66250 temp3134_26)
            (bvadd ARGNAME_x_NAMEEND_DIM var66250)
            var66250)
       ARGNAME_x_NAMEEND_DIM))
(assert (= temp3134_30 #x0000000000000002))
(assert (= temp3134_29 temp3134_30))
(assert (= temp3134_31 #x0000000000000004))
(assert (= var467142 temp3134_31))
(assert (= temp3134_32 #x0000000000000001))
(assert (= var1253582 temp3134_32))
(assert (= var1253583 var66250))
(assert (= temp3134_33 #x0000000000000001))
(assert (= var1311851 temp3134_33))
(assert (= temp3134_35 #x0000000000000001))
(assert (= temp3134_34 temp3134_35))
(assert (= temp3134_36 #x0000000000000001))
(assert (= var1712369 temp3134_36))
(assert (= temp3134_37 #x0000000000000001))
(assert (= var1712373 temp3134_37))
(assert (= temp3134_38 #x0000000000000000))
(assert (= var1712415 temp3134_38))
(assert (= temp3134_39 #x0000000000000000))
(assert (= var1712415 temp3134_39))
(assert (= temp3134_41 #x0000000000000001))
(assert (= temp3134_40 temp3134_41))
(assert (= temp3134_42 #x0000000000000001))
(assert (= var2367729 temp3134_42))
(assert (= temp3134_43 #x0000000000000001))
(assert (= var2367733 temp3134_43))
(assert (= temp3134_45 #x0000000000000001))
(assert (= temp3134_44 temp3134_45))
(assert (= temp3134_46 #x0000000000000001))
(assert (= var2957553 temp3134_46))
(assert (= temp3134_47 #x0000000000000001))
(assert (= var2957557 temp3134_47))
(assert (= temp3134_48 #x0000000000000000))
(assert (= var2957587 temp3134_48))
(assert (= temp3134_49 #x0000000000000000))
(assert (= var2957599 temp3134_49))
(assert (= temp3134_50 #x0000000000000000))
(assert (= var2957599 temp3134_50))
(assert (= temp3134_51 #x0000000000000000))
(assert (= var2957587 temp3134_51))
(assert (= temp3134_52 #x0000000000000001))
(assert (= ARGNAME_increasing_NAMEEND temp3134_52))
(model-add temp3134_1 () (_ BitVec 64) #x0000000000000001)
(model-add temp3134_2 () (_ BitVec 64) #x0000000000000001)
(model-add var73602 () (_ BitVec 64) #x0000000000000001)
(model-del k!0)
(model-add ARGNAME_x_NAMEEND_DIM
           ()
           (_ BitVec 64)
           (ite k!0 #x0000000000000001 (bvnot #x0000000000000001)))






